$molecule
   0 1
   C 0.0 0.0 0.0
   O 0.0 0.0 1.128
$end

$rem
   METHOD                 adc(3)
   BASIS                  6-311G
   IP_STATES              [5,5,5,5]
   POINT_GROUP_SYMMETRY   true
   N_FROZEN_CORE          0
   N_FROZEN_VIRTUAL       0
   ADC_DENSITY_ORDER      4
$end
